
Gurobi 7.5.2 (linux64, Python) logging started Wed Jun 27 15:29:53 2018

Academic license - for non-commercial use only

Gurobi 7.5.2 (linux64, Python) logging started Thu Jun 28 08:46:42 2018

Academic license - for non-commercial use only

Gurobi 7.5.2 (linux64, Python) logging started Thu Jun 28 09:04:18 2018

Academic license - for non-commercial use only

Gurobi 7.5.2 (linux64, Python) logging started Thu Jun 28 10:57:42 2018

Academic license - for non-commercial use only

Gurobi 7.5.2 (linux64, Python) logging started Thu Jun 28 11:35:04 2018

Academic license - for non-commercial use only

Gurobi 7.5.2 (linux64, Python) logging started Thu Jun 28 11:35:45 2018

Academic license - for non-commercial use only
